(set-info :status unknown)
(declare-const symbol_225 (_ BitVec 32))
(declare-const symbol_140 (_ BitVec 32))
(declare-const symbol_406 (_ BitVec 32))
(declare-const symbol_381 (_ BitVec 32))
(declare-const symbol_71 (_ BitVec 32))
(declare-const symbol_312 (_ BitVec 32))
(declare-const symbol_240 (_ BitVec 32))
(declare-const symbol_35 (_ BitVec 32))
(declare-const symbol_298 (_ BitVec 32))
(declare-const symbol_197 (_ BitVec 32))
(declare-const symbol_366 (_ BitVec 32))
(declare-const symbol_293 (_ BitVec 32))
(declare-const symbol_73 (_ BitVec 32))
(declare-const symbol_42 (_ BitVec 32))
(declare-const symbol_271 (_ BitVec 32))
(declare-const symbol_156 (_ BitVec 32))
(declare-const symbol_110 (_ BitVec 32))
(declare-const symbol_91 (_ BitVec 32))
(declare-const symbol_58 (_ BitVec 32))
(declare-const symbol_115 (_ BitVec 32))
(declare-const symbol_257 (_ BitVec 32))
(declare-const symbol_178 (_ BitVec 32))
(declare-const symbol_250 (_ BitVec 32))
(declare-const symbol_413 (_ BitVec 32))
(declare-const symbol_289 (_ BitVec 32))
(declare-const symbol_254 (_ BitVec 32))
(declare-const symbol_128 (_ BitVec 32))
(declare-const symbol_77 (_ BitVec 32))
(declare-const symbol_60 (_ BitVec 32))
(declare-const symbol_84 (_ BitVec 32))
(declare-const symbol_28 (_ BitVec 32))
(declare-const symbol_158 (_ BitVec 32))
(declare-const symbol_184 (_ BitVec 32))
(declare-const symbol_166 (_ BitVec 32))
(declare-const symbol_398 (_ BitVec 32))
(declare-const symbol_103 (_ BitVec 32))
(declare-const symbol_96 (_ BitVec 32))
(declare-const symbol_396 (_ BitVec 32))
(declare-const symbol_47 (_ BitVec 32))
(declare-const symbol_52 (_ BitVec 32))
(declare-const symbol_16 (_ BitVec 32))
(declare-const symbol_267 (_ BitVec 32))
(declare-const symbol_408 (_ BitVec 32))
(declare-const symbol_221 (_ BitVec 32))
(declare-const symbol_117 (_ BitVec 32))
(declare-const symbol_24 (_ BitVec 32))
(declare-const symbol_385 (_ BitVec 32))
(declare-const symbol_1 (_ BitVec 32))
(declare-const symbol_370 (_ BitVec 32))
(declare-const symbol_264 (_ BitVec 32))
(declare-const symbol_22 (_ BitVec 32))
(declare-const symbol_281 (_ BitVec 32))
(declare-const symbol_67 (_ BitVec 32))
(declare-const symbol_357 (_ BitVec 32))
(declare-const symbol_219 (_ BitVec 32))
(declare-const symbol_176 (_ BitVec 32))
(declare-const symbol_234 (_ BitVec 32))
(declare-const symbol_62 (_ BitVec 32))
(declare-const symbol_322 (_ BitVec 32))
(declare-const symbol_80 (_ BitVec 32))
(declare-const symbol_336 (_ BitVec 32))
(declare-const symbol_328 (_ BitVec 32))
(declare-const symbol_297 (_ BitVec 32))
(declare-const symbol_287 (_ BitVec 32))
(declare-const symbol_269 (_ BitVec 32))
(declare-const symbol_244 (_ BitVec 32))
(declare-const symbol_40 (_ BitVec 32))
(declare-const symbol_30 (_ BitVec 32))
(declare-const symbol_300 (_ BitVec 32))
(declare-const symbol_343 (_ BitVec 32))
(declare-const symbol_318 (_ BitVec 32))
(declare-const symbol_180 (_ BitVec 32))
(declare-const symbol_136 (_ BitVec 32))
(declare-const symbol_43 (_ BitVec 32))
(declare-const symbol_316 (_ BitVec 32))
(declare-const symbol_93 (_ BitVec 32))
(declare-const symbol_2 (_ BitVec 32))
(declare-const symbol_326 (_ BitVec 32))
(declare-const symbol_101 (_ BitVec 32))
(declare-const symbol_277 (_ BitVec 32))
(declare-const symbol_199 (_ BitVec 32))
(declare-const symbol_20 (_ BitVec 32))
(declare-const symbol_404 (_ BitVec 32))
(declare-const symbol_415 (_ BitVec 32))
(declare-const symbol_320 (_ BitVec 32))
(declare-const symbol_208 (_ BitVec 32))
(declare-const symbol_362 (_ BitVec 32))
(declare-const symbol_242 (_ BitVec 32))
(declare-const symbol_400 (_ BitVec 32))
(declare-const symbol_12 (_ BitVec 32))
(declare-const symbol_238 (_ BitVec 32))
(declare-const symbol_223 (_ BitVec 32))
(declare-const symbol_360 (_ BitVec 32))
(declare-const symbol_273 (_ BitVec 32))
(declare-const symbol_215 (_ BitVec 32))
(declare-const symbol_261 (_ BitVec 32))
(declare-const symbol_203 (_ BitVec 32))
(declare-const symbol_353 (_ BitVec 32))
(declare-const symbol_55 (_ BitVec 32))
(declare-const symbol_32 (_ BitVec 32))
(declare-const symbol_232 (_ BitVec 32))
(declare-const symbol_155 (_ BitVec 32))
(declare-const symbol_162 (_ BitVec 32))
(declare-const symbol_150 (_ BitVec 32))
(declare-const symbol_347 (_ BitVec 32))
(declare-const symbol_304 (_ BitVec 32))
(declare-const symbol_160 (_ BitVec 32))
(declare-const symbol_330 (_ BitVec 32))
(declare-const symbol_227 (_ BitVec 32))
(declare-const symbol_144 (_ BitVec 32))
(declare-const symbol_134 (_ BitVec 32))
(declare-const symbol_112 (_ BitVec 32))
(declare-const symbol_27 (_ BitVec 32))
(declare-const symbol_283 (_ BitVec 32))
(declare-const symbol_383 (_ BitVec 32))
(declare-const symbol_118 (_ BitVec 32))
(declare-const symbol_372 (_ BitVec 32))
(declare-const symbol_153 (_ BitVec 32))
(declare-const symbol_109 (_ BitVec 32))
(declare-const symbol_252 (_ BitVec 32))
(declare-const symbol_295 (_ BitVec 32))
(declare-const symbol_209 (_ BitVec 32))
(declare-const symbol_45 (_ BitVec 32))
(declare-const symbol_314 (_ BitVec 32))
(declare-const symbol_164 (_ BitVec 32))
(declare-const symbol_132 (_ BitVec 32))
(declare-const symbol_113 (_ BitVec 32))
(declare-const symbol_349 (_ BitVec 32))
(declare-const symbol_334 (_ BitVec 32))
(declare-const symbol_49 (_ BitVec 32))
(declare-const symbol_394 (_ BitVec 32))
(declare-const symbol_302 (_ BitVec 32))
(declare-const symbol_182 (_ BitVec 32))
(declare-const symbol_378 (_ BitVec 32))
(declare-const symbol_63 (_ BitVec 32))
(declare-const symbol_409 (_ BitVec 32))
(declare-const symbol_374 (_ BitVec 32))
(declare-const symbol_168 (_ BitVec 32))
(declare-const symbol_345 (_ BitVec 32))
(declare-const symbol_172 (_ BitVec 32))
(declare-const symbol_10 (_ BitVec 32))
(declare-const symbol_4 (_ BitVec 32))
(declare-const symbol_310 (_ BitVec 32))
(declare-const symbol_75 (_ BitVec 32))
(declare-const symbol_411 (_ BitVec 32))
(declare-const symbol_387 (_ BitVec 32))
(declare-const symbol_291 (_ BitVec 32))
(declare-const symbol_0 (_ BitVec 32))
(declare-const symbol_392 (_ BitVec 32))
(declare-const symbol_82 (_ BitVec 32))
(declare-const symbol_368 (_ BitVec 32))
(declare-const symbol_306 (_ BitVec 32))
(declare-const symbol_230 (_ BitVec 32))
(declare-const symbol_259 (_ BitVec 32))
(declare-const symbol_192 (_ BitVec 32))
(declare-const symbol_188 (_ BitVec 32))
(declare-const symbol_65 (_ BitVec 32))
(declare-const symbol_285 (_ BitVec 32))
(declare-const symbol_248 (_ BitVec 32))
(declare-const symbol_34 (_ BitVec 32))
(declare-const symbol_126 (_ BitVec 32))
(declare-const symbol_38 (_ BitVec 32))
(declare-const symbol_236 (_ BitVec 32))
(declare-const symbol_105 (_ BitVec 32))
(declare-const symbol_57 (_ BitVec 32))
(declare-const symbol_6 (_ BitVec 32))
(declare-const symbol_263 (_ BitVec 32))
(declare-const symbol_341 (_ BitVec 32))
(declare-const symbol_390 (_ BitVec 32))
(declare-const symbol_122 (_ BitVec 32))
(declare-const symbol_18 (_ BitVec 32))
(declare-const symbol_308 (_ BitVec 32))
(declare-const symbol_170 (_ BitVec 32))
(declare-const symbol_211 (_ BitVec 32))
(declare-const symbol_402 (_ BitVec 32))
(declare-const symbol_275 (_ BitVec 32))
(declare-const symbol_246 (_ BitVec 32))
(declare-const symbol_37 (_ BitVec 32))
(declare-const symbol_364 (_ BitVec 32))
(declare-const symbol_339 (_ BitVec 32))
(declare-const symbol_120 (_ BitVec 32))
(declare-const symbol_324 (_ BitVec 32))
(declare-const symbol_190 (_ BitVec 32))
(declare-const symbol_174 (_ BitVec 32))
(declare-const symbol_99 (_ BitVec 32))
(declare-const symbol_107 (_ BitVec 32))
(declare-const symbol_142 (_ BitVec 32))
(declare-const symbol_89 (_ BitVec 32))
(declare-const symbol_124 (_ BitVec 32))
(declare-const symbol_217 (_ BitVec 32))
(declare-const symbol_206 (_ BitVec 32))
(declare-const symbol_186 (_ BitVec 32))
(declare-const symbol_13 (_ BitVec 32))
(declare-const symbol_53 (_ BitVec 32))
(declare-const symbol_279 (_ BitVec 32))
(declare-const symbol_146 (_ BitVec 32))
(declare-const symbol_376 (_ BitVec 32))
(declare-const symbol_148 (_ BitVec 32))
(declare-const symbol_138 (_ BitVec 32))
(declare-const symbol_69 (_ BitVec 32))
(declare-const symbol_8 (_ BitVec 32))
(declare-const symbol_332 (_ BitVec 32))
(declare-const symbol_195 (_ BitVec 32))
(declare-const symbol_129 (_ BitVec 32))
(declare-const symbol_417 (_ BitVec 32))
(declare-const symbol_87 (_ BitVec 32))
(declare-const symbol_355 (_ BitVec 32))
(declare-const symbol_351 (_ BitVec 32))
(declare-const symbol_213 (_ BitVec 32))
(declare-const symbol_201 (_ BitVec 32))
(assert (= symbol_417 (_ bv4 32)))
(assert (not (not (= symbol_417 (_ bv2 32)))))
(assert (not (not (= symbol_415 (_ bv2 32)))))
(assert (not (not (= symbol_413 (_ bv2 32)))))
(assert (not (not (= symbol_411 (_ bv2 32)))))
(assert (not (not (= symbol_409 (_ bv2 32)))))
(assert (not (not (= symbol_408 (_ bv2 32)))))
(assert (not (not (= symbol_406 (_ bv2 32)))))
(assert (not (not (= symbol_404 (_ bv2 32)))))
(assert (not (not (= symbol_402 (_ bv2 32)))))
(assert (not (not (= symbol_400 (_ bv2 32)))))
(assert (not (not (= symbol_398 (_ bv2 32)))))
(assert (not (not (= symbol_396 (_ bv2 32)))))
(assert (not (not (= symbol_394 (_ bv2 32)))))
(assert (not (not (= symbol_392 (_ bv2 32)))))
(assert (not (not (= symbol_390 (_ bv2 32)))))
(assert (not (not (= symbol_387 (_ bv2 32)))))
(assert (not (not (= symbol_385 (_ bv2 32)))))
(assert (not (not (= symbol_383 (_ bv2 32)))))
(assert (not (not (= symbol_381 (_ bv2 32)))))
(assert (not (not (= symbol_378 (_ bv2 32)))))
(assert (not (not (= symbol_376 (_ bv2 32)))))
(assert (not (not (= symbol_374 (_ bv2 32)))))
(assert (not (not (= symbol_372 (_ bv2 32)))))
(assert (not (not (= symbol_370 (_ bv2 32)))))
(assert (not (not (= symbol_368 (_ bv2 32)))))
(assert (not (not (= symbol_366 (_ bv2 32)))))
(assert (not (not (= symbol_364 (_ bv2 32)))))
(assert (not (not (= symbol_362 (_ bv2 32)))))
(assert (not (not (= symbol_360 (_ bv2 32)))))
(assert (not (not (= symbol_357 (_ bv2 32)))))
(assert (not (not (= symbol_355 (_ bv2 32)))))
(assert (not (not (= symbol_353 (_ bv2 32)))))
(assert (not (not (= symbol_351 (_ bv2 32)))))
(assert (not (not (= symbol_349 (_ bv2 32)))))
(assert (not (not (= symbol_347 (_ bv2 32)))))
(assert (not (not (= symbol_345 (_ bv2 32)))))
(assert (not (not (= symbol_343 (_ bv2 32)))))
(assert (not (not (= symbol_341 (_ bv2 32)))))
(assert (not (not (= symbol_339 (_ bv2 32)))))
(assert (not (not (= symbol_336 (_ bv2 32)))))
(assert (not (not (= symbol_334 (_ bv2 32)))))
(assert (not (not (= symbol_332 (_ bv2 32)))))
(assert (not (not (= symbol_330 (_ bv2 32)))))
(assert (not (not (= symbol_328 (_ bv2 32)))))
(assert (not (not (= symbol_326 (_ bv2 32)))))
(assert (not (not (= symbol_324 (_ bv2 32)))))
(assert (not (not (= symbol_322 (_ bv2 32)))))
(assert (not (not (= symbol_320 (_ bv2 32)))))
(assert (not (not (= symbol_318 (_ bv2 32)))))
(assert (not (not (= symbol_316 (_ bv2 32)))))
(assert (not (not (= symbol_314 (_ bv2 32)))))
(assert (not (not (= symbol_312 (_ bv2 32)))))
(assert (not (not (= symbol_310 (_ bv2 32)))))
(assert (not (not (= symbol_308 (_ bv2 32)))))
(assert (not (not (= symbol_306 (_ bv2 32)))))
(assert (not (not (= symbol_304 (_ bv2 32)))))
(assert (not (not (= symbol_302 (_ bv2 32)))))
(assert (not (not (= symbol_300 (_ bv2 32)))))
(assert (not (not (= symbol_298 (_ bv2 32)))))
(assert (not (not (= symbol_297 (_ bv2 32)))))
(assert (not (not (= symbol_295 (_ bv2 32)))))
(assert (not (not (= symbol_293 (_ bv2 32)))))
(assert (not (not (= symbol_291 (_ bv2 32)))))
(assert (not (not (= symbol_289 (_ bv2 32)))))
(assert (not (not (= symbol_287 (_ bv2 32)))))
(assert (not (not (= symbol_285 (_ bv2 32)))))
(assert (not (not (= symbol_283 (_ bv2 32)))))
(assert (not (not (= symbol_281 (_ bv2 32)))))
(assert (not (not (= symbol_279 (_ bv2 32)))))
(assert (not (not (= symbol_277 (_ bv2 32)))))
(assert (not (not (= symbol_275 (_ bv2 32)))))
(assert (not (not (= symbol_273 (_ bv2 32)))))
(assert (not (not (= symbol_271 (_ bv2 32)))))
(assert (not (not (= symbol_269 (_ bv2 32)))))
(assert (not (not (= symbol_267 (_ bv2 32)))))
(assert (not (not (= symbol_264 (_ bv2 32)))))
(assert (not (not (= symbol_263 (_ bv2 32)))))
(assert (not (not (= symbol_261 (_ bv2 32)))))
(assert (not (not (= symbol_259 (_ bv2 32)))))
(assert (not (not (= symbol_257 (_ bv2 32)))))
(assert (not (not (= symbol_254 (_ bv2 32)))))
(assert (not (not (= symbol_252 (_ bv2 32)))))
(assert (not (not (= symbol_250 (_ bv2 32)))))
(assert (not (not (= symbol_248 (_ bv2 32)))))
(assert (not (not (= symbol_246 (_ bv2 32)))))
(assert (not (not (= symbol_244 (_ bv2 32)))))
(assert (not (not (= symbol_242 (_ bv2 32)))))
(assert (not (not (= symbol_240 (_ bv2 32)))))
(assert (not (not (= symbol_238 (_ bv2 32)))))
(assert (not (not (= symbol_236 (_ bv2 32)))))
(assert (not (not (= symbol_234 (_ bv2 32)))))
(assert (not (not (= symbol_232 (_ bv2 32)))))
(assert (not (not (= symbol_230 (_ bv2 32)))))
(assert (not (not (= symbol_227 (_ bv2 32)))))
(assert (not (not (= symbol_225 (_ bv2 32)))))
(assert (not (not (= symbol_223 (_ bv2 32)))))
(assert (not (not (= symbol_221 (_ bv2 32)))))
(assert (not (not (= symbol_219 (_ bv2 32)))))
(assert (not (not (= symbol_217 (_ bv2 32)))))
(assert (not (not (= symbol_215 (_ bv2 32)))))
(assert (not (not (= symbol_213 (_ bv2 32)))))
(assert (not (not (= symbol_211 (_ bv2 32)))))
(assert (not (not (= symbol_209 (_ bv2 32)))))
(assert (not (not (= symbol_208 (_ bv2 32)))))
(assert (not (not (= symbol_206 (_ bv2 32)))))
(assert (not (not (= symbol_203 (_ bv2 32)))))
(assert (not (not (= symbol_201 (_ bv2 32)))))
(assert (not (not (= symbol_199 (_ bv2 32)))))
(assert (not (not (= symbol_197 (_ bv2 32)))))
(assert (not (not (= symbol_195 (_ bv2 32)))))
(assert (not (not (= symbol_192 (_ bv2 32)))))
(assert (not (not (= symbol_190 (_ bv2 32)))))
(assert (not (not (= symbol_188 (_ bv2 32)))))
(assert (not (not (= symbol_186 (_ bv2 32)))))
(assert (not (not (= symbol_184 (_ bv2 32)))))
(assert (not (not (= symbol_182 (_ bv2 32)))))
(assert (not (not (= symbol_180 (_ bv2 32)))))
(assert (not (not (= symbol_178 (_ bv2 32)))))
(assert (not (not (= symbol_176 (_ bv2 32)))))
(assert (not (not (= symbol_174 (_ bv2 32)))))
(assert (not (not (= symbol_172 (_ bv2 32)))))
(assert (not (not (= symbol_170 (_ bv2 32)))))
(assert (not (not (= symbol_168 (_ bv2 32)))))
(assert (not (not (= symbol_166 (_ bv2 32)))))
(assert (not (not (= symbol_164 (_ bv2 32)))))
(assert (not (not (= symbol_162 (_ bv2 32)))))
(assert (not (not (= symbol_160 (_ bv2 32)))))
(assert (not (not (= symbol_158 (_ bv2 32)))))
(assert (not (not (= symbol_156 (_ bv2 32)))))
(assert (not (not (= symbol_155 (_ bv2 32)))))
(assert (not (not (= symbol_153 (_ bv2 32)))))
(assert (not (not (= symbol_150 (_ bv2 32)))))
(assert (not (not (= symbol_148 (_ bv2 32)))))
(assert (not (not (= symbol_146 (_ bv2 32)))))
(assert (not (not (= symbol_144 (_ bv2 32)))))
(assert (not (not (= symbol_142 (_ bv2 32)))))
(assert (not (not (= symbol_140 (_ bv2 32)))))
(assert (not (not (= symbol_138 (_ bv2 32)))))
(assert (not (not (= symbol_136 (_ bv2 32)))))
(assert (not (not (= symbol_134 (_ bv2 32)))))
(assert (not (not (= symbol_132 (_ bv2 32)))))
(assert (not (not (= symbol_129 (_ bv2 32)))))
(assert (not (not (= symbol_128 (_ bv2 32)))))
(assert (not (not (= symbol_126 (_ bv2 32)))))
(assert (not (not (= symbol_124 (_ bv2 32)))))
(assert (not (not (= symbol_122 (_ bv2 32)))))
(assert (not (not (= symbol_120 (_ bv2 32)))))
(assert (not (not (= symbol_118 (_ bv2 32)))))
(assert (not (not (= symbol_117 (_ bv2 32)))))
(assert (not (not (= symbol_115 (_ bv2 32)))))
(assert (not (not (= symbol_113 (_ bv2 32)))))
(assert (not (not (= symbol_112 (_ bv2 32)))))
(assert (not (not (= symbol_110 (_ bv2 32)))))
(assert (not (not (= symbol_109 (_ bv2 32)))))
(assert (not (not (= symbol_107 (_ bv2 32)))))
(assert (not (not (= symbol_105 (_ bv2 32)))))
(assert (not (not (= symbol_103 (_ bv2 32)))))
(assert (not (not (= symbol_101 (_ bv2 32)))))
(assert (not (not (= symbol_99 (_ bv2 32)))))
(assert (not (not (= symbol_96 (_ bv2 32)))))
(assert (not (not (= symbol_93 (_ bv2 32)))))
(assert (not (not (= symbol_91 (_ bv2 32)))))
(assert (not (not (= symbol_89 (_ bv2 32)))))
(assert (not (not (= symbol_87 (_ bv2 32)))))
(assert (not (not (= symbol_84 (_ bv2 32)))))
(assert (not (not (= symbol_82 (_ bv2 32)))))
(assert (not (not (= symbol_80 (_ bv2 32)))))
(assert (not (not (= symbol_77 (_ bv2 32)))))
(assert (not (not (= symbol_75 (_ bv2 32)))))
(assert (not (not (= symbol_73 (_ bv2 32)))))
(assert (not (not (= symbol_71 (_ bv2 32)))))
(assert (not (not (= symbol_69 (_ bv2 32)))))
(assert (not (not (= symbol_67 (_ bv2 32)))))
(assert (not (not (= symbol_65 (_ bv2 32)))))
(assert (not (not (= symbol_63 (_ bv2 32)))))
(assert (not (not (= symbol_62 (_ bv2 32)))))
(assert (not (not (= symbol_60 (_ bv2 32)))))
(assert (not (not (= symbol_58 (_ bv2 32)))))
(assert (not (not (= symbol_57 (_ bv2 32)))))
(assert (not (not (= symbol_55 (_ bv2 32)))))
(assert (not (not (= symbol_53 (_ bv2 32)))))
(assert (not (not (= symbol_52 (_ bv2 32)))))
(assert (not (not (= symbol_49 (_ bv2 32)))))
(assert (not (not (= symbol_47 (_ bv2 32)))))
(assert (not (not (= symbol_45 (_ bv2 32)))))
(assert (not (not (= symbol_43 (_ bv2 32)))))
(assert (not (not (= symbol_42 (_ bv2 32)))))
(assert (not (not (= symbol_40 (_ bv2 32)))))
(assert (not (not (= symbol_38 (_ bv2 32)))))
(assert (not (not (= symbol_37 (_ bv2 32)))))
(assert (not (not (= symbol_35 (_ bv2 32)))))
(assert (not (not (= symbol_34 (_ bv2 32)))))
(assert (not (not (= symbol_32 (_ bv2 32)))))
(assert (not (not (= symbol_30 (_ bv2 32)))))
(assert (not (not (= symbol_28 (_ bv2 32)))))
(assert (not (not (= symbol_27 (_ bv2 32)))))
(assert (not (not (= symbol_24 (_ bv2 32)))))
(assert (not (not (= symbol_22 (_ bv2 32)))))
(assert (not (not (= symbol_20 (_ bv2 32)))))
(assert (not (not (= symbol_18 (_ bv2 32)))))
(assert (not (not (= symbol_16 (_ bv2 32)))))
(assert (not (not (= symbol_13 (_ bv2 32)))))
(assert (not (not (= symbol_12 (_ bv2 32)))))
(assert (not (not (= symbol_10 (_ bv2 32)))))
(assert (not (not (= symbol_8 (_ bv2 32)))))
(assert (not (not (= symbol_6 (_ bv2 32)))))
(assert (not (not (= symbol_4 (_ bv2 32)))))
(assert (not (not (= symbol_2 (_ bv2 32)))))
(assert (not (not (= symbol_1 (_ bv2 32)))))
(assert (not (not (= symbol_0 (_ bv2 32)))))
(check-sat)